minizinc/sudoku_problems2/sudoku_p36.dzn
%
% sudoku_p36.dzn
% See http://www.hakank.org/minizinc/sudoku_gcc.mzn
% 
% This problem is problem 36 from
% Gecode's sudoku.cpp
% http://www.gecode.org/gecode-doc-latest/sudoku_8cpp-source.html
% 
x = array2d(1..n, 1..n, [   
% http://janko.at/Raetsel/Sudoku/303.a.htm
% 36
  _,  _,  _,  _,  _, 13,  _,  3,  _,  _,  7, 15,  _, 10,  _,  _,
  _,  _,  _, 11,  1,  _, 15,  8,  _,  _,  _,  _,  2,  6,  _,  _,
  _, 15,  _,  3,  _,  _,  _,  6, 13,  _,  _, 10, 12,  _,  _,  _,
 10, 16, 12,  _,  9,  _,  5,  _,  _,  8,  _,  _,  _,  _, 11, 13,
 14,  _, 15, 16,  5,  _,  _,  _,  7,  _,  _,  _, 10,  _,  9,  _,
  2,  _,  7,  _,  _,  _,  _,  _,  8,  9, 10,  3,  6,  _, 15,  5,
  _,  _,  _,  1,  _,  9,  _,  _,  _, 12, 11, 14,  _,  _,  _,  _,
  _,  3,  _,  _,  _,  _, 10,  _,  _,  _,  _,  _, 11, 16,  2,  _,
  _,  1, 11,  2,  _,  _,  _,  _,  _,  7,  _,  _,  _,  _,  6,  _,
  _,  _,  _,  _, 11,  1,  6,  _,  _,  _,  3,  _,  9,  _,  _,  _,
  5, 13,  _,  4, 15,  3, 14, 10,  _,  _,  _,  _,  _,  2,  _, 11,
  _, 14,  _, 10,  _,  _,  _,  9,  _,  _,  _, 13,  8,  3,  _, 12,
  4, 10,  _,  _,  _,  _, 11,  _,  _, 14,  _,  8,  _, 15, 12,  9,
  _,  _,  _, 14, 10,  _,  _, 16,  1,  _,  _,  _, 13,  _,  4,  _,
  _,  _, 16, 12,  _,  _,  _,  _, 15, 13,  _, 11,  1,  _,  _,  _,
  _,  _, 13,  _,  4,  7,  _,  _,  6,  _, 12,  _,  _,  _,  _,  _
]);

n = 16;


